75554
48,63,99,122,137,152,221,578,631,732,874,940,1003,1222,1236,1268,1311,1376,1457,1510,1669,1946,1952,2093,2145,2253,2281,2362,2372,2406,2496,2551,2744,2896,2915,2932,3032,3111,3166,3180,3215,3216,3223,3624,3762,3772,3977,3983,3991,3994,4026,4032,4090,4138,4152,4512,4520,4528,4606,4783,4818,4847,4874,4920,5013,5042,5051,5068,5136,5172,5475,5498,5795,5892,6130,6160,6161,6339,6362,6376,6377,6468,6683,6771,6956,6960,6993,7009,7161,7196,7224,7297,7380,7386,7439,7490,7510,7519,7872,7960,7970,8101,8261,8316,8346,8368,8447,8488,8498,8579,8657,8660,8839,8884,8903,8916,8923,8936,8973,9019,9051,9054,9094,9140,9346,9404,9470,9476,9601,9610,9621,9628,9681,9797,9801,9822,9895
